p cnf 27 17
-1 22 0 
-2 14 16 -3 23 0 
-4 7 -5 24 0 
-6 8 12 19 23 0 
-7 4 -3 23 0 
-8 6 12 19 24 0 
-9 -10 23 0 
-11 -12 6 8 19 23 0 
-13 24 0 
-14 2 16 -15 20 24 0 
-1 25 0 
-11 -16 2 14 23 0 
-17 -7 4 25 0 
-18 21 23 0 
-19 6 8 12 23 0 
-20 15 26 0 
-21 18 27 0 
